c A SAT instance generated from a 3-CNF formula that had 26 clauses and 13 variables
p cnf 13 26
-2 1 -10 0
8 4 10 0
7 -6 -3 0
-8 -3 10 0
13 1 5 0
-6 2 -11 0
-5 -7 -8 0
-8 12 -1 0
-11 -7 -8 0
-6 -11 -8 0
7 -2 11 0
-1 -8 2 0
-8 7 6 0
-6 -8 -3 0
2 -13 8 0
-6 -7 12 0
12 9 3 0
-9 7 10 0
10 8 4 0
-6 7 -4 0
-8 2 -4 0
-9 6 10 0
4 11 1 0
-1 -13 6 0
2 4 8 0
-6 -13 -5 0
